Problem:    
Rows:       256
Columns:    89 (72 integer, 72 binary)
Non-zeros:  960
Status:     INTEGER OPTIMAL
Objective:  value = 68.773306 (MINimum)

   No.   Row name        Activity     Lower bound   Upper bound
------ ------------    ------------- ------------- -------------
     1 r.5                   68.7733             0               
     2 r.6                   33.5637      -983.771               
     3 r.7                   1068.77             0               
     4 r.8                  -970.235      -987.805               
     5 r.9                   68.7733             0               
     6 r.10                  49.2474        -982.6               
     7 r.11                  1068.77             0               
     8 r.12                 -984.057      -986.702               
     9 r.13                  68.7733             0               
    10 r.14                  49.2474      -971.919               
    11 r.15                  1068.77             0               
    12 r.16                 -950.753      -981.423               
    13 r.17                  1068.77             0               
    14 r.18                 -982.186      -984.832               
    15 r.19                  68.7733             0               
    16 r.20                  32.4816      -989.681               
    17 r.21                  1068.77             0               
    18 r.22                 -967.364      -986.105               
    19 r.23                  68.7733             0               
    20 r.24                  34.0054      -989.479               
    21 r.25                  1068.77             0               
    22 r.26                 -998.746      -998.746               
    23 r.27                  68.7733             0               
    24 r.28                  5.36197       -991.92               
    25 r.29                  1068.77             0               
    26 r.30                 -931.227      -964.327               
    27 r.31                  68.7733             0               
    28 r.32                  68.7733      -980.293               
    29 r.33                  68.7733             0               
    30 r.34                  68.7733      -964.379               
    31 r.35                  1068.77             0               
    32 r.36                 -931.227      -980.474               
    33 r.37                        1             1             = 
    34 r.38                        1             1             = 
    35 r.39                        1             1             = 
    36 r.40                        1             1             = 
    37 r.41                        1             1             = 
    38 r.42                        1             1             = 
    39 r.43                        1             1             = 
    40 r.44                        1             1             = 
    41 r.45                     1000             2               
    42 r.46                    -1000         -1001               
    43 r.47                  2016.15        -982.6               
    44 r.48                        2             2               
    45 r.49                       -2         -1001               
    46 r.50                 -14.7271      -986.702               
    47 r.51                     1000             2               
    48 r.52                    -1000         -1001               
    49 r.53                  2016.15      -971.919               
    50 r.54                        2             2               
    51 r.55                       -2         -1001               
    52 r.56                 -981.423      -981.423               
    53 r.57                     1001             2               
    54 r.58                    -1001         -1001               
    55 r.59                  1984.71      -984.832               
    56 r.60                     1001             2               
    57 r.61                    -1001         -1001               
    58 r.62                  2001.81      -989.681               
    59 r.63                     1001             2               
    60 r.64                    -1001         -1001               
    61 r.65                  1999.54      -986.105               
    62 r.66                     1001             2               
    63 r.67                    -1001         -1001               
    64 r.68                  2003.33      -989.479               
    65 r.69                  30.9184      -983.771               
    66 r.70                  -972.88      -987.805               
    67 r.71                  30.9184      -983.771               
    68 r.72                  -972.88      -987.805               
    69 r.73                 -964.327      -964.327               
    70 r.74                  35.6734      -980.293               
    71 r.75                 -961.897      -964.327               
    72 r.76                  38.1028      -980.293               
    73 r.77                     1000             2               
    74 r.78                    -1000         -1001               
    75 r.79                  2035.67      -964.379               
    76 r.80                        2             2               
    77 r.81                       -2         -1001               
    78 r.82                 -961.897      -980.474               
    79 r.83                     1000             2               
    80 r.84                    -1000         -1001               
    81 r.85                  1984.32       16.2293               
    82 r.86                        2             2               
    83 r.87                       -2         -1001               
    84 r.88                  13.8215       12.1946               
    85 r.89                     1000             2               
    86 r.90                    -1000         -1001               
    87 r.91                     2000      -971.919               
    88 r.92                        2             2               
    89 r.93                       -2         -1001               
    90 r.94                 -966.696      -981.423               
    91 r.95                     1001             2               
    92 r.96                    -1001         -1001               
    93 r.97                  1968.57      -984.832               
    94 r.98                     1001             2               
    95 r.99                    -1001         -1001               
    96 r.100                 2016.54      -989.681               
    97 r.101                    1001             2               
    98 r.102                   -1001         -1001               
    99 r.103                 1983.39      -986.105               
   100 r.104                    1001             2               
   101 r.105                   -1001         -1001               
   102 r.106                 2018.06      -989.479               
   103 r.107                 46.6021        -982.6               
   104 r.108                -986.702      -986.702               
   105 r.109                 46.6021        -982.6               
   106 r.110                -986.702      -986.702               
   107 r.111                    1001             2               
   108 r.112                   -1001         -1001               
   109 r.113                 2019.53      -964.327               
   110 r.114                    1001             2               
   111 r.115                   -1001         -1001               
   112 r.116                 2052.83      -980.293               
   113 r.117                 19.5259      -964.379               
   114 r.118                -980.474      -980.474               
   115 r.119                 52.8298      -964.379               
   116 r.120                 -947.17      -980.474               
   117 r.121                    1000             2               
   118 r.122                   -1000         -1001               
   119 r.123                 1984.32       16.2293               
   120 r.124                       2             2               
   121 r.125                      -2         -1001               
   122 r.126                 980.518       12.1946               
   123 r.127                    1000             2               
   124 r.128                   -1000         -1001               
   125 r.129                    2000       17.4002               
   126 r.130                       2             2               
   127 r.131                      -2         -1001               
   128 r.132                 966.696       13.2981               
   129 r.133                  30.506      -971.919               
   130 r.134                -969.494      -981.423               
   131 r.135                 18.5769      -971.919               
   132 r.136                -981.423      -981.423               
   133 r.137                    1001             2               
   134 r.138                   -1001         -1001               
   135 r.139                 1983.39      -986.105               
   136 r.140                    1001             2               
   137 r.141                   -1001         -1001               
   138 r.142                 1984.76      -989.479               
   139 r.143                 46.6021      -971.919               
   140 r.144                -953.398      -981.423               
   141 r.145                 46.6021      -971.919               
   142 r.146                -953.398      -981.423               
   143 r.147                    1001             2               
   144 r.148                   -1001         -1001               
   145 r.149                 2019.53      -964.327               
   146 r.150                    1001             2               
   147 r.151                   -1001         -1001               
   148 r.152                 2019.53      -980.293               
   149 r.153                 19.5259      -964.379               
   150 r.154                -980.474      -980.474               
   151 r.155                 19.5259      -964.379               
   152 r.156                -980.474      -980.474               
   153 r.157                    1001             2               
   154 r.158                   -1001         -1001               
   155 r.159                 2014.82       16.2293               
   156 r.160                    1001             2               
   157 r.161                   -1001         -1001               
   158 r.162                 1999.09       12.1946               
   159 r.163                    1001             2               
   160 r.164                   -1001         -1001               
   161 r.165                 2030.51       17.4002               
   162 r.166                    1001             2               
   163 r.167                   -1001         -1001               
   164 r.168                 1985.27       13.2981               
   165 r.169                       2             2               
   166 r.170                      -2         -1001               
   167 r.171                -986.105      -986.105               
   168 r.172                    1000             2               
   169 r.173                   -1000         -1001               
   170 r.174                 2003.33      -989.479               
   171 r.175                -984.832      -984.832               
   172 r.176                 29.8363      -989.681               
   173 r.177                -984.832      -984.832               
   174 r.178                 29.8363      -989.681               
   175 r.179                       2             2               
   176 r.180                      -2         -1001               
   177 r.181                -949.968      -964.327               
   178 r.182                    1000             2               
   179 r.183                   -1000         -1001               
   180 r.184                  2038.1      -980.293               
   181 r.185                 50.0319      -964.379               
   182 r.186                -949.968      -980.474               
   183 r.187                 38.1028      -964.379               
   184 r.188                -961.897      -980.474               
   185 r.189                    1001             2               
   186 r.190                   -1001         -1001               
   187 r.191                 2000.46       16.2293               
   188 r.192                    1001             2               
   189 r.193                   -1001         -1001               
   190 r.194                 1996.67       12.1946               
   191 r.195                    1001             2               
   192 r.196                   -1001         -1001               
   193 r.197                 2016.15       17.4002               
   194 r.198                    1001             2               
   195 r.199                   -1001         -1001               
   196 r.200                 1982.84       13.2981               
   197 r.201                    1001             2               
   198 r.202                   -1001         -1001               
   199 r.203                 2016.15       28.0814               
   200 r.204                    1001             2               
   201 r.205                   -1001         -1001               
   202 r.206                 2016.15       18.5769               
   203 r.207                       2             2               
   204 r.208                      -2         -1001               
   205 r.209                 984.714       15.1684               
   206 r.210                    1000             2               
   207 r.211                   -1000         -1001               
   208 r.212                 1999.38       10.3194               
   209 r.213                -970.009      -986.105               
   210 r.214                 31.3601      -989.479               
   211 r.215                -970.009      -986.105               
   212 r.216                 31.3601      -989.479               
   213 r.217                -964.327      -964.327               
   214 r.218                 35.6734      -980.293               
   215 r.219                -964.327      -964.327               
   216 r.220                 35.6734      -980.293               
   217 r.221                 35.6734      -964.379               
   218 r.222                -964.327      -980.474               
   219 r.223                 35.6734      -964.379               
   220 r.224                -964.327      -980.474               
   221 r.225                    1001             2               
   222 r.226                   -1001         -1001               
   223 r.227                 1980.47       17.4002               
   224 r.228                    1001             2               
   225 r.229                   -1001         -1001               
   226 r.230                 1947.17       13.2981               
   227 r.231                    1001             2               
   228 r.232                   -1001         -1001               
   229 r.233                 1980.47       28.0814               
   230 r.234                    1001             2               
   231 r.235                   -1001         -1001               
   232 r.236                 1980.47       18.5769               
   233 r.237                       2             2               
   234 r.238                      -2         -1001               
   235 r.239                  949.04       15.1684               
   236 r.240                    1000             2               
   237 r.241                   -1000         -1001               
   238 r.242                 1963.71       10.3194               
   239 r.243                    1001             2               
   240 r.244                   -1001         -1001               
   241 r.245                    2000      -964.379               
   242 r.246                    1001             2               
   243 r.247                   -1001         -1001               
   244 r.248                    2000      -980.474               
   245 r.249                    1000             2               
   246 r.250                   -1000         -1001               
   247 r.251                 1964.79       16.2293               
   248 r.252                       2             2               
   249 r.253                      -2         -1001               
   250 r.254                 960.992       12.1946               
   251 r.255                    1001             2               
   252 r.256                   -1001         -1001               
   253 r.257                    2000       35.6734               
   254 r.258                    1001             2               
   255 r.259                   -1001         -1001               
   256 r.260                    2000        19.707               

   No. Column name       Activity     Lower bound   Upper bound
------ ------------    ------------- ------------- -------------
     1 tt                    68.7733             0               
     2 s_1_1        *              0             0             1 
     3 t_1_1                 35.6734             0               
     4 s_1_7        *              1             0             1 
     5 s_2_1        *              1             0             1 
     6 t_2_1                 38.1028             0               
     7 s_2_7        *              0             0             1 
     8 s_1_2        *              0             0             1 
     9 t_1_2                 19.5259             0               
    10 s_1_8        *              0             0             1 
    11 s_2_2        *              1             0             1 
    12 t_2_2                 52.8298             0               
    13 s_2_8        *              1             0             1 
    14 s_1_3        *              0             0             1 
    15 t_1_3                 19.5259             0               
    16 s_2_3        *              1             0             1 
    17 t_2_3                 19.5259             0               
    18 s_1_4        *              1             0             1 
    19 t_1_4                 50.0319             0               
    20 s_2_4        *              0             0             1 
    21 t_2_4                 38.1028             0               
    22 s_1_5        *              1             0             1 
    23 t_1_5                 35.6734             0               
    24 s_2_5        *              0             0             1 
    25 t_2_5                 35.6734             0               
    26 s_1_6        *              1             0             1 
    27 t_1_6                  66.128             0               
    28 s_2_6        *              0             0             1 
    29 t_2_6                  66.128             0               
    30 t_1_7                       0             0               
    31 t_2_7                       0             0               
    32 t_1_8                       0             0               
    33 t_2_8                       0             0               
    34 r_1_1_2      *              1             0             1 
    35 u_1_1_2      *              0             0             1 
    36 r_2_1_2      *              0             0             1 
    37 u_2_1_2      *              0             0             1 
    38 r_1_1_3      *              1             0             1 
    39 u_1_1_3      *              0             0             1 
    40 r_2_1_3      *              0             0             1 
    41 u_2_1_3      *              1             0             1 
    42 r_1_1_4      *              1             0             1 
    43 u_1_1_4      *              0             0             1 
    44 r_2_1_4      *              1             0             1 
    45 u_2_1_4      *              0             0             1 
    46 r_1_1_5      *              1             0             1 
    47 u_1_1_5      *              0             0             1 
    48 r_2_1_5      *              1             0             1 
    49 u_2_1_5      *              0             0             1 
    50 r_1_1_8      *              1             0             1 
    51 u_1_1_8      *              0             0             1 
    52 r_2_1_8      *              0             0             1 
    53 u_2_1_8      *              1             0             1 
    54 r_1_2_3      *              1             0             1 
    55 u_1_2_3      *              0             0             1 
    56 r_2_2_3      *              0             0             1 
    57 u_2_2_3      *              1             0             1 
    58 r_1_2_4      *              1             0             1 
    59 u_1_2_4      *              0             0             1 
    60 r_2_2_4      *              1             0             1 
    61 u_2_2_4      *              0             0             1 
    62 r_1_2_5      *              1             0             1 
    63 u_1_2_5      *              0             0             1 
    64 r_2_2_5      *              1             0             1 
    65 u_2_2_5      *              0             0             1 
    66 r_1_2_7      *              1             0             1 
    67 u_1_2_7      *              0             0             1 
    68 r_2_2_7      *              1             0             1 
    69 u_2_2_7      *              0             0             1 
    70 r_1_3_5      *              1             0             1 
    71 u_1_3_5      *              0             0             1 
    72 r_2_3_5      *              1             0             1 
    73 u_2_3_5      *              0             0             1 
    74 r_1_3_7      *              1             0             1 
    75 u_1_3_7      *              0             0             1 
    76 r_2_3_7      *              1             0             1 
    77 u_2_3_7      *              0             0             1 
    78 r_1_4_5      *              0             0             1 
    79 u_1_4_5      *              1             0             1 
    80 r_2_4_5      *              1             0             1 
    81 u_2_4_5      *              0             0             1 
    82 r_1_4_7      *              0             0             1 
    83 u_1_4_7      *              1             0             1 
    84 r_2_4_7      *              1             0             1 
    85 u_2_4_7      *              0             0             1 
    86 r_1_7_8      *              1             0             1 
    87 u_1_7_8      *              0             0             1 
    88 r_2_7_8      *              1             0             1 
    89 u_2_7_8      *              0             0             1 

Integer feasibility conditions:

KKT.PE: max.abs.err = 2.27e-13 on row 22
        max.rel.err = 1.06e-16 on row 22
        High quality

KKT.PB: max.abs.err = 2.27e-13 on row 22
        max.rel.err = 2.30e-16 on row 167
        High quality

End of output
